(set-option :produce-models true)
(set-logic QF_UF)
(declare-fun p6() Bool)
(declare-fun p43() Bool)
(declare-fun p45() Bool)
(declare-fun p12() Bool)
(declare-fun p9() Bool)
(declare-fun p29() Bool)
(declare-fun p33() Bool)
(declare-fun p8() Bool)
(declare-fun p56() Bool)
(declare-fun p67() Bool)
(declare-fun p20() Bool)
(declare-fun p2() Bool)
(declare-fun p21() Bool)
(declare-fun p38() Bool)
(declare-fun p13() Bool)
(declare-fun p3() Bool)
(declare-fun p10() Bool)
(declare-fun p63() Bool)
(declare-fun p44() Bool)
(declare-fun p47() Bool)
(declare-fun p7() Bool)
(declare-fun p46() Bool)
(declare-fun p66() Bool)
(declare-fun p60() Bool)
(declare-fun p52() Bool)
(declare-fun p31() Bool)
(declare-fun p17() Bool)
(declare-fun p62() Bool)
(declare-fun p18() Bool)
(declare-fun p25() Bool)
(declare-fun p39() Bool)
(declare-fun p51() Bool)
(declare-fun p22() Bool)
(declare-fun p26() Bool)
(declare-fun p14() Bool)
(declare-fun p49() Bool)
(declare-fun p1() Bool)
(declare-fun p65() Bool)
(declare-fun p54() Bool)
(declare-fun p23() Bool)
(declare-fun p16() Bool)
(declare-fun p57() Bool)
(declare-fun p42() Bool)
(declare-fun p40() Bool)
(declare-fun p53() Bool)
(declare-fun p15() Bool)
(declare-fun p50() Bool)
(declare-fun p35() Bool)
(declare-fun p19() Bool)
(declare-fun p37() Bool)
(declare-fun p59() Bool)
(declare-fun p48() Bool)
(declare-fun p41() Bool)
(declare-fun p4() Bool)
(declare-fun p69() Bool)
(declare-fun p30() Bool)
(declare-fun p11() Bool)
(declare-fun p27() Bool)
(declare-fun p32() Bool)
(declare-fun p24() Bool)
(declare-fun p55() Bool)
(declare-fun p68() Bool)
(declare-fun p0() Bool)
(declare-fun p5() Bool)
(declare-fun p36() Bool)
(declare-fun p34() Bool)
(declare-fun p28() Bool)
(declare-fun p58() Bool)
(declare-fun p61() Bool)
(declare-fun p64() Bool)
(assert
(and (or (not p6) p43 (not p45)) (or p12 (not p9) (not p29)) (or (not p33) (not p8) p56) (or p33 (not p67) (not p20)) (or (not p2) (not p21) (not p38)) (or p13 (not p3) p67) (or (not p10) (not p63) p44) (or p63 p47 p7) (or (not p46) p66 p60) (or p44 (not p13) p38) (or p52 (not p31) (not p29)) (or p17 p33 (not p62)) (or (not p18) (not p25) (not p44)) (or p39 (not p52) p51) (or (not p22) (not p26) p14) (or p3 (not p3) p49) (or p3 p17 (not p20)) (or p1 (not p65) (not p54)) (or p23 p16 (not p57)) (or p2 p31 p43) (or p42 p40 p47) (or (not p53) (not p39) p14) (or (not p15) (not p31) (not p38)) (or (not p43) (not p2) p50) (or p12 p35 p62) (or p62 p19 (not p6)) (or (not p37) p20 p59) (or (not p16) (not p40) p48) (or (not p35) p18 (not p54)) (or p54 (not p54) p41) (or p10 p66 (not p47)) (or p4 p37 p2) (or (not p66) p45 (not p69)) (or (not p30) p22 (not p20)) (or (not p25) p50 (not p52)) (or p65 p62 p44) (or p38 (not p18) (not p18)) (or p8 p30 p11) (or p49 p19 (not p27)) (or (not p40) (not p21) (not p60)) (or p48 (not p67) (not p54)) (or p52 (not p43) p32) (or (not p41) p18 (not p19)) (or (not p24) p51 p8) (or (not p55) (not p19) p10) (or p24 (not p67) (not p27)) (or (not p4) (not p63) p49) (or p52 (not p12) p68) (or p33 (not p68) (not p40)) (or (not p67) p38 p29) (or (not p59) (not p7) (not p19)) (or p57 (not p54) (not p3)) (or (not p17) (not p43) (not p14)) (or (not p40) (not p7) p13) (or p63 (not p11) (not p15)) (or p6 p39 (not p22)) (or (not p9) (not p0) (not p39)) (or (not p17) p17 p32) (or (not p5) p67 p36) (or (not p34) p27 (not p63)) (or p12 (not p1) p31) (or p17 p37 (not p69)) (or p14 p11 (not p63)) (or p22 p62 (not p36)) (or p28 p29 (not p50)) (or (not p49) (not p9) p41) (or p15 (not p37) (not p21)) (or p1 (not p40) (not p48)) (or (not p51) p65 (not p10)) (or (not p51) (not p41) (not p30)) (or p33 p35 (not p45)) (or p43 p67 (not p17)) (or (not p63) p21 p33) (or p21 (not p47) (not p60)) (or p14 p69 (not p45)) (or p36 p15 p58) (or p0 (not p59) (not p54)) (or (not p48) (not p9) (not p28)) (or p18 p59 (not p10)) (or p41 p29 (not p60)) (or (not p38) p31 (not p46)) (or (not p22) (not p15) (not p37)) (or (not p57) (not p50) p30) (or p31 (not p8) (not p58)) (or p21 (not p2) p47) (or (not p57) (not p24) p48) (or (not p32) (not p21) (not p42)) (or (not p1) (not p2) p58) (or p43 (not p26) p6) (or (not p27) p37 (not p50)) (or (not p53) p37 (not p34)) (or p67 p23 p55) (or (not p68) (not p39) p58) (or (not p22) (not p39) (not p17)) (or (not p36) (not p69) (not p33)) (or (not p24) (not p20) (not p6)) (or (not p24) p35 p32) (or p14 (not p47) p22) (or p25 p19 p27) (or (not p65) p29 p26) (or (not p45) p49 (not p54)) (or (not p4) (not p1) p28) (or (not p26) p8 p39) (or (not p23) (not p57) p12) (or (not p11) p68 (not p12)) (or p46 p36 p14) (or (not p4) (not p0) (not p56)) (or (not p12) (not p60) p16) (or p39 p27 p69) (or (not p16) (not p37) (not p44)) (or p56 p32 p20) (or (not p57) p29 p34) (or p30 (not p68) (not p25)) (or (not p7) (not p36) p5) (or p48 (not p19) (not p57)) (or (not p22) p67 p23) (or (not p43) p3 (not p55)) (or p40 (not p58) p27) (or (not p26) (not p41) (not p66)) (or (not p15) p27 (not p27)) (or p60 p49 p52) (or (not p13) p22 (not p28)) (or (not p2) (not p36) p2) (or (not p41) p60 (not p61)) (or p18 (not p32) (not p56)) (or (not p62) p53 p35) (or (not p39) p65 p39) (or (not p30) (not p67) (not p62)) (or p33 (not p47) p32) (or p68 p49 p24) (or (not p39) p46 p23) (or (not p39) p10 (not p47)) (or (not p1) (not p46) (not p28)) (or (not p10) (not p10) (not p4)) (or (not p38) p51 (not p42)) (or p12 p16 (not p40)) (or p66 (not p22) (not p0)) (or (not p54) p57 p63) (or p18 (not p62) (not p33)) (or p50 (not p66) p2) (or (not p49) p28 p51) (or p13 p9 (not p10)) (or p43 (not p51) (not p48)) (or (not p69) p15 (not p10)) (or (not p16) p59 p26) (or (not p13) p20 p64) (or (not p12) (not p28) (not p35)) (or (not p15) (not p43) (not p40)) (or (not p39) (not p65) (not p66)) (or p23 p39 (not p21)) (or p37 (not p54) (not p3)) (or p19 (not p24) (not p47)) (or p58 (not p22) p7) (or p44 (not p47) p36) (or p4 (not p4) p35) (or p1 p54 (not p28)) (or p7 (not p16) (not p63)) (or p63 (not p63) (not p9)) (or (not p14) (not p58) (not p60)) (or (not p43) p60 (not p45)) (or (not p1) p40 (not p28)) (or (not p55) (not p13) (not p67)) (or p39 p16 (not p2)) (or (not p17) (not p34) (not p38)) (or p55 p62 (not p54)) (or (not p50) (not p49) p22) (or (not p61) p57 p39) (or (not p7) (not p1) (not p5)) (or p40 (not p5) p38) (or p41 (not p42) p56) (or p54 p41 p8) (or (not p57) p61 p36) (or (not p31) p51 (not p0)) (or (not p56) (not p65) p40) (or (not p38) p54 (not p68)) (or p58 p43 (not p26)) (or (not p16) p42 p19) (or p43 p36 (not p22)) (or p47 p67 p48) (or (not p1) (not p64) (not p52)) (or p0 p65 p14) (or p47 p10 p26) (or (not p47) (not p34) p33) (or p6 p58 p31) (or (not p44) (not p18) p15) (or (not p16) p61 p53) (or (not p41) (not p65) p67) (or p25 (not p45) (not p52)) (or p60 p13 p51) (or (not p18) p25 p61) (or (not p40) p35 (not p62)) (or (not p20) p26 (not p49)) (or (not p19) (not p37) p22) (or p19 (not p44) (not p25)) (or p65 p19 p68) (or (not p36) p13 (not p38)) (or (not p46) (not p7) (not p22)) (or p1 (not p33) (not p52)) (or p7 p25 p60) (or (not p15) (not p43) p65) (or (not p59) (not p2) (not p66)) (or (not p53) p67 p55) (or (not p53) (not p65) (not p43)) (or (not p11) p57 (not p32)) (or (not p68) p5 (not p25)) (or (not p17) (not p41) (not p20)) (or (not p68) p52 (not p21)) (or p18 (not p4) (not p2)) (or p37 p17 p20) (or p44 p55 (not p66)) (or p66 (not p30) (not p36)) (or p60 p64 p55) (or p8 (not p27) p61) (or p15 (not p7) (not p60)) (or p54 (not p54) (not p27)) (or (not p52) (not p30) (not p53)) (or (not p58) p16 (not p1)) (or p1 p51 p42) (or (not p58) (not p49) p44) (or (not p40) p27 p68) (or (not p4) p39 (not p46)) (or (not p43) p41 (not p25)) (or (not p23) p63 (not p29)) (or p28 (not p21) (not p41)) (or p23 p6 (not p19)) (or p1 p49 (not p41)) (or p7 (not p32) p13) (or p28 (not p1) (not p34)) (or (not p57) p62 (not p32)) (or p6 p68 (not p61)) (or (not p37) (not p59) (not p49)) (or (not p21) p37 p16) (or p56 p20 p59) (or (not p42) p8 p35) (or (not p23) (not p36) (not p23)) (or (not p46) p25 (not p7)) (or p34 p15 (not p66)) (or (not p36) p21 p67) (or (not p25) (not p65) (not p33)) (or p32 p29 (not p65)) (or (not p65) (not p54) p32) (or (not p61) (not p18) (not p41)) (or p0 p53 (not p55)) (or p49 p15 p63) (or p26 (not p57) (not p31)) (or (not p68) (not p62) (not p50)) (or (not p14) (not p22) (not p4)) (or (not p34) (not p37) p64) (or p51 p56 p14) (or (not p29) p6 (not p69)) (or p21 p10 p30) (or p35 p11 p41) (or p4 (not p18) (not p37)) (or p27 (not p3) p67) (or p45 (not p29) (not p67)) (or p22 p10 (not p63)) (or (not p40) p13 (not p5)) (or (not p38) p11 (not p8)) (or (not p56) p6 p56) (or (not p23) (not p54) p22) (or p27 p56 (not p14)) (or (not p47) (not p32) p51) (or (not p62) (not p18) (not p7)) (or (not p8) p61 p54) (or (not p29) (not p33) p35) (or p32 p15 (not p53)) (or p0 p50 (not p29)) (or (not p28) p9 (not p57)) (or p48 p14 (not p44)) (or (not p55) p60 (not p10)) (or p3 (not p16) p10) (or (not p25) (not p28) p31) (or (not p41) p4 (not p64)) (or (not p49) p25 p43) (or (not p25) (not p41) (not p44)) (or p38 (not p67) p32) (or (not p34) p42 (not p66)) (or (not p7) p13 p42) (or p2 (not p67) p32) (or p5 (not p14) p2) (or (not p25) (not p62) (not p39)) (or p68 p6 p41) (or p53 (not p30) (not p61)) (or p22 (not p22) p2) (or (not p11) (not p69) (not p60)) (or (not p13) (not p66) (not p60)) (or (not p58) p2 (not p54)) (or (not p8) p34 p4) (or p16 p48 (not p49)) (or (not p45) p47 (not p31)) (or (not p14) (not p69) (not p16)) (or p69 (not p30) p65) (or p65 (not p49) p6) (or p16 p26 (not p58)) (or p40 (not p68) (not p66)) (or p39 p65 (not p26)) (or (not p19) p5 p37))
)
(check-sat)
(get-model)
